c Random 6-CNF over 30 variables and 90 clauses
c Generated with `cnfgen`
c (C) 2012-2016 Massimo Lauria <lauria.massimo@gmail.com>
c https://massimolauria.github.io/cnfgen
c
c COMMAND LINE: cnfgen --output tmp-6-30-90.dimacs --output-format dimacs randkcnf 6 30 90
c
c sdimacs generated by gen-sdimacs
c
p cnf 30 90
r 0.5 1 2 3 4 5 6 7 8 9 10 11 12 13 14 15 0
e  16 17 18 19 20 21 22 23 24 25 26 27 28 29 30 0
7 -8 -9 -19 20 -25 0
-2 -5 -13 22 -23 -24 0
6 -8 -9 -12 15 -29 0
-1 2 -6 -15 -28 -30 0
3 -5 -7 -16 -21 25 0
-5 8 -10 -15 19 -29 0
13 15 16 21 -26 -28 0
-4 9 -13 -16 19 -23 0
11 14 16 22 -24 -29 0
7 -15 -16 -20 26 28 0
3 11 12 -19 -20 -23 0
4 10 13 -15 18 -19 0
-7 10 17 -20 24 -27 0
-2 -8 14 16 20 24 0
-7 -11 -15 19 -24 -26 0
-1 -4 -12 16 26 -27 0
1 -3 -6 9 22 -27 0
-1 4 10 -16 18 -21 0
-7 10 12 -20 -28 30 0
8 12 14 -15 -19 20 0
4 -14 17 -27 -29 -30 0
2 -6 14 -19 -20 24 0
7 13 14 20 21 28 0
-5 -8 -11 16 -24 28 0
-5 14 16 -18 22 -28 0
-2 4 18 20 24 30 0
-11 12 19 23 -24 -26 0
1 -4 -7 -17 23 -25 0
-2 -12 -16 17 20 -25 0
-1 3 6 11 -25 30 0
-3 -7 13 25 28 -30 0
-2 -4 10 -11 -18 21 0
6 13 17 18 -24 -25 0
9 -10 -14 17 18 26 0
15 -16 23 25 27 -30 0
-1 12 18 22 27 29 0
1 -2 24 25 26 -28 0
-3 6 -8 10 -15 18 0
1 5 -7 14 -26 27 0
9 10 11 -12 -13 20 0
-1 13 14 17 20 23 0
-9 12 14 16 21 29 0
2 -3 6 -18 -24 29 0
-4 21 24 -27 29 -30 0
-2 9 -10 -13 -23 -25 0
-6 -16 17 -19 21 24 0
2 7 -13 20 -26 29 0
-9 11 13 -20 24 -28 0
6 -12 -16 18 -19 -29 0
10 -11 -15 20 26 27 0
5 -6 -7 10 14 -24 0
-5 -11 -12 16 -18 24 0
4 -8 10 14 19 -25 0
-1 4 -8 11 18 -27 0
11 14 -15 -17 22 -28 0
5 13 15 17 -21 -26 0
-1 20 23 24 -26 -28 0
-4 -6 9 -12 14 -17 0
-3 -7 9 -13 -18 -21 0
6 7 -8 -17 -18 26 0
-1 2 -4 -11 18 26 0
2 -10 12 19 23 -29 0
-9 -17 -21 24 25 29 0
4 9 -12 -19 24 -26 0
-5 -7 -8 -9 10 -25 0
-5 -20 21 -25 -27 29 0
6 -7 -8 -14 -16 -23 0
-10 -11 15 -19 -24 -29 0
1 -9 11 -20 25 27 0
6 12 16 -19 -20 -23 0
9 -12 17 -19 22 26 0
-13 15 16 -23 -25 -29 0
-5 -8 -11 -13 -19 20 0
3 -5 -9 -11 21 26 0
-1 20 22 24 -25 27 0
10 -17 -19 23 -25 28 0
-3 -7 -8 12 -16 24 0
-5 -6 11 17 20 27 0
-3 13 -15 -23 -24 -29 0
1 -5 -7 -12 17 -20 0
8 11 14 -22 -27 30 0
-6 8 9 10 22 -28 0
-2 -4 -9 -10 -22 23 0
-4 -14 -19 20 -21 -27 0
-8 10 -11 19 -20 -28 0
4 8 13 -15 17 23 0
-6 -7 -11 21 -23 -29 0
-1 -2 7 12 19 -27 0
-9 -15 -16 18 -21 22 0
4 11 -16 20 22 -23 0
